76 51 56 22 95 77 30 75 84 9 86 82 52 87 1 72 40 33 97 23 38 32 74 63 66 18 99 16 31 42 88 11 48 96 94 35 92 21 90 39 71 61 17 6 24 80 0 49 3 26 4 14 57 12 54 29 62 5 93 65 15 34 7 45 10 70 44 20 19 59 64 8 91 81 73 53 47 28 60 98 43 46 50 2 89 25 68 36 83 58 37 67 41 79 78 69 27 13 55 85 

